-205.0 5.0 4.0 4.0 7.0 5.0 8.0 6.0 7.0 10.0 0.0 4.0 9.0 2.0 7.0 7.0 9.0 2.0 0.0 7.0 3.0 7.0 8.0 5.0 5.0 5.0 8.0 0.0 7.0 5.0 5.0 7.0 7.0 10.0 7.0 5.0 1.0 0.0 4.0 3.0 
5.0 -236.0 4.0 9.0 1.0 10.0 1.0 9.0 7.0 5.0 3.0 8.0 5.0 8.0 10.0 4.0 8.0 2.0 10.0 10.0 4.0 10.0 10.0 7.0 10.0 1.0 4.0 8.0 8.0 4.0 2.0 7.0 4.0 6.0 9.0 8.0 9.0 6.0 0.0 0.0 
4.0 4.0 -194.0 3.0 8.0 2.0 1.0 9.0 5.0 3.0 1.0 7.0 3.0 6.0 6.0 1.0 2.0 10.0 4.0 9.0 7.0 9.0 6.0 10.0 1.0 10.0 2.0 7.0 1.0 1.0 2.0 9.0 6.0 4.0 9.0 4.0 3.0 7.0 5.0 3.0 
4.0 9.0 3.0 -203.0 1.0 1.0 10.0 6.0 1.0 8.0 9.0 6.0 10.0 7.0 0.0 0.0 7.0 9.0 5.0 10.0 7.0 10.0 9.0 8.0 6.0 3.0 1.0 6.0 6.0 8.0 1.0 2.0 2.0 3.0 0.0 3.0 10.0 5.0 0.0 7.0 
7.0 1.0 8.0 1.0 -196.0 10.0 9.0 9.0 5.0 9.0 7.0 3.0 4.0 4.0 2.0 9.0 5.0 1.0 6.0 3.0 10.0 9.0 1.0 7.0 7.0 8.0 0.0 1.0 8.0 1.0 10.0 1.0 8.0 7.0 1.0 0.0 2.0 6.0 2.0 4.0 
5.0 10.0 2.0 1.0 10.0 -205.0 10.0 6.0 7.0 1.0 5.0 6.0 5.0 7.0 3.0 5.0 2.0 4.0 5.0 4.0 10.0 7.0 2.0 2.0 3.0 3.0 0.0 7.0 3.0 2.0 8.0 7.0 7.0 6.0 8.0 9.0 5.0 3.0 9.0 6.0 
8.0 1.0 1.0 10.0 9.0 10.0 -220.0 9.0 4.0 1.0 7.0 0.0 7.0 4.0 5.0 7.0 3.0 2.0 7.0 8.0 7.0 6.0 5.0 8.0 6.0 8.0 9.0 9.0 6.0 6.0 1.0 4.0 9.0 6.0 2.0 4.0 8.0 4.0 3.0 6.0 
6.0 9.0 9.0 6.0 9.0 6.0 9.0 -200.0 7.0 7.0 2.0 0.0 5.0 2.0 7.0 1.0 0.0 5.0 7.0 0.0 2.0 7.0 4.0 2.0 10.0 10.0 4.0 5.0 1.0 5.0 8.0 5.0 0.0 7.0 8.0 9.0 4.0 3.0 4.0 5.0 
7.0 7.0 5.0 1.0 5.0 7.0 4.0 7.0 -176.0 0.0 4.0 6.0 5.0 9.0 1.0 0.0 3.0 5.0 4.0 0.0 4.0 10.0 9.0 2.0 0.0 3.0 4.0 5.0 10.0 1.0 10.0 1.0 4.0 5.0 6.0 2.0 10.0 4.0 4.0 2.0 
10.0 5.0 3.0 8.0 9.0 1.0 1.0 7.0 0.0 -191.0 10.0 2.0 8.0 10.0 0.0 1.0 0.0 3.0 8.0 2.0 1.0 2.0 10.0 0.0 8.0 5.0 8.0 6.0 4.0 0.0 7.0 10.0 0.0 8.0 6.0 7.0 4.0 7.0 8.0 2.0 
0.0 3.0 1.0 9.0 7.0 5.0 7.0 2.0 4.0 10.0 -183.0 8.0 7.0 3.0 6.0 6.0 2.0 1.0 2.0 9.0 5.0 8.0 9.0 3.0 7.0 7.0 2.0 9.0 8.0 0.0 3.0 7.0 2.0 3.0 6.0 6.0 2.0 4.0 0.0 0.0 
4.0 8.0 7.0 6.0 3.0 6.0 0.0 0.0 6.0 2.0 8.0 -185.0 2.0 10.0 2.0 7.0 4.0 7.0 0.0 4.0 2.0 4.0 6.0 4.0 1.0 10.0 3.0 9.0 0.0 5.0 3.0 6.0 4.0 1.0 5.0 9.0 2.0 10.0 9.0 6.0 
9.0 5.0 3.0 10.0 4.0 5.0 7.0 5.0 5.0 8.0 7.0 2.0 -229.0 4.0 8.0 6.0 9.0 5.0 4.0 9.0 6.0 8.0 7.0 8.0 1.0 4.0 6.0 4.0 5.0 7.0 10.0 10.0 2.0 6.0 7.0 1.0 8.0 4.0 7.0 3.0 
2.0 8.0 6.0 7.0 4.0 7.0 4.0 2.0 9.0 10.0 3.0 10.0 4.0 -211.0 5.0 0.0 3.0 9.0 8.0 9.0 10.0 4.0 9.0 4.0 4.0 9.0 0.0 1.0 7.0 3.0 1.0 4.0 5.0 6.0 9.0 3.0 7.0 9.0 2.0 4.0 
7.0 10.0 6.0 0.0 2.0 3.0 5.0 7.0 1.0 0.0 6.0 2.0 8.0 5.0 -193.0 6.0 10.0 4.0 5.0 4.0 5.0 5.0 8.0 10.0 2.0 3.0 0.0 9.0 2.0 2.0 8.0 7.0 7.0 8.0 4.0 5.0 7.0 3.0 4.0 3.0 
7.0 4.0 1.0 0.0 9.0 5.0 7.0 1.0 0.0 1.0 6.0 7.0 6.0 0.0 6.0 -200.0 2.0 1.0 10.0 10.0 6.0 7.0 4.0 10.0 10.0 5.0 1.0 7.0 8.0 10.0 4.0 6.0 9.0 2.0 9.0 4.0 2.0 3.0 3.0 7.0 
9.0 8.0 2.0 7.0 5.0 2.0 3.0 0.0 3.0 0.0 2.0 4.0 9.0 3.0 10.0 2.0 -166.0 10.0 7.0 10.0 0.0 0.0 3.0 2.0 0.0 5.0 3.0 4.0 0.0 2.0 10.0 7.0 9.0 7.0 2.0 0.0 7.0 5.0 4.0 0.0 
2.0 2.0 10.0 9.0 1.0 4.0 2.0 5.0 5.0 3.0 1.0 7.0 5.0 9.0 4.0 1.0 10.0 -198.0 3.0 0.0 8.0 9.0 1.0 5.0 4.0 9.0 10.0 4.0 6.0 8.0 5.0 1.0 9.0 1.0 9.0 8.0 3.0 7.0 5.0 3.0 
0.0 10.0 4.0 5.0 6.0 5.0 7.0 7.0 4.0 8.0 2.0 0.0 4.0 8.0 5.0 10.0 7.0 3.0 -189.0 1.0 6.0 4.0 3.0 8.0 0.0 2.0 0.0 4.0 8.0 9.0 7.0 5.0 3.0 3.0 1.0 10.0 1.0 4.0 6.0 9.0 
7.0 10.0 9.0 10.0 3.0 4.0 8.0 0.0 0.0 2.0 9.0 4.0 9.0 9.0 4.0 10.0 10.0 0.0 1.0 -229.0 5.0 9.0 7.0 3.0 9.0 0.0 2.0 4.0 10.0 0.0 10.0 8.0 6.0 9.0 9.0 7.0 9.0 9.0 0.0 4.0 
3.0 4.0 7.0 7.0 10.0 10.0 7.0 2.0 4.0 1.0 5.0 2.0 6.0 10.0 5.0 6.0 0.0 8.0 6.0 5.0 -209.0 9.0 5.0 8.0 2.0 4.0 2.0 1.0 1.0 6.0 5.0 2.0 3.0 5.0 7.0 6.0 8.0 7.0 10.0 10.0 
7.0 10.0 9.0 10.0 9.0 7.0 6.0 7.0 10.0 2.0 8.0 4.0 8.0 4.0 5.0 7.0 0.0 9.0 4.0 9.0 9.0 -228.0 7.0 3.0 1.0 2.0 7.0 1.0 3.0 9.0 3.0 9.0 3.0 6.0 10.0 1.0 1.0 4.0 10.0 4.0 
8.0 10.0 6.0 9.0 1.0 2.0 5.0 4.0 9.0 10.0 9.0 6.0 7.0 9.0 8.0 4.0 3.0 1.0 3.0 7.0 5.0 7.0 -221.0 1.0 7.0 2.0 8.0 0.0 1.0 5.0 8.0 10.0 6.0 5.0 7.0 1.0 5.0 9.0 7.0 6.0 
5.0 7.0 10.0 8.0 7.0 2.0 8.0 2.0 2.0 0.0 3.0 4.0 8.0 4.0 10.0 10.0 2.0 5.0 8.0 3.0 8.0 3.0 1.0 -202.0 7.0 0.0 8.0 4.0 1.0 8.0 9.0 1.0 5.0 4.0 2.0 10.0 2.0 9.0 4.0 8.0 
5.0 10.0 1.0 6.0 7.0 3.0 6.0 10.0 0.0 8.0 7.0 1.0 1.0 4.0 2.0 10.0 0.0 4.0 0.0 9.0 2.0 1.0 7.0 7.0 -177.0 1.0 8.0 1.0 8.0 6.0 8.0 1.0 1.0 5.0 7.0 5.0 2.0 1.0 5.0 7.0 
5.0 1.0 10.0 3.0 8.0 3.0 8.0 10.0 3.0 5.0 7.0 10.0 4.0 9.0 3.0 5.0 5.0 9.0 2.0 0.0 4.0 2.0 2.0 0.0 1.0 -189.0 3.0 6.0 3.0 2.0 2.0 9.0 9.0 9.0 3.0 2.0 0.0 8.0 10.0 4.0 
8.0 4.0 2.0 1.0 0.0 0.0 9.0 4.0 4.0 8.0 2.0 3.0 6.0 0.0 0.0 1.0 3.0 10.0 0.0 2.0 2.0 7.0 8.0 8.0 8.0 3.0 -177.0 4.0 9.0 0.0 0.0 1.0 10.0 10.0 2.0 6.0 9.0 8.0 7.0 8.0 
0.0 8.0 7.0 6.0 1.0 7.0 9.0 5.0 5.0 6.0 9.0 9.0 4.0 1.0 9.0 7.0 4.0 4.0 4.0 4.0 1.0 1.0 0.0 4.0 1.0 6.0 4.0 -189.0 2.0 1.0 9.0 6.0 9.0 6.0 8.0 7.0 1.0 3.0 3.0 8.0 
7.0 8.0 1.0 6.0 8.0 3.0 6.0 1.0 10.0 4.0 8.0 0.0 5.0 7.0 2.0 8.0 0.0 6.0 8.0 10.0 1.0 3.0 1.0 1.0 8.0 3.0 9.0 2.0 -184.0 6.0 6.0 7.0 0.0 5.0 6.0 5.0 2.0 7.0 1.0 3.0 
5.0 4.0 1.0 8.0 1.0 2.0 6.0 5.0 1.0 0.0 0.0 5.0 7.0 3.0 2.0 10.0 2.0 8.0 9.0 0.0 6.0 9.0 5.0 8.0 6.0 2.0 0.0 1.0 6.0 -170.0 8.0 6.0 8.0 0.0 6.0 8.0 3.0 3.0 2.0 4.0 
5.0 2.0 2.0 1.0 10.0 8.0 1.0 8.0 10.0 7.0 3.0 3.0 10.0 1.0 8.0 4.0 10.0 5.0 7.0 10.0 5.0 3.0 8.0 9.0 8.0 2.0 0.0 9.0 6.0 8.0 -223.0 2.0 6.0 7.0 7.0 7.0 4.0 5.0 9.0 3.0 
7.0 7.0 9.0 2.0 1.0 7.0 4.0 5.0 1.0 10.0 7.0 6.0 10.0 4.0 7.0 6.0 7.0 1.0 5.0 8.0 2.0 9.0 10.0 1.0 1.0 9.0 1.0 6.0 7.0 6.0 2.0 -206.0 6.0 5.0 4.0 8.0 5.0 1.0 9.0 0.0 
7.0 4.0 6.0 2.0 8.0 7.0 9.0 0.0 4.0 0.0 2.0 4.0 2.0 5.0 7.0 9.0 9.0 9.0 3.0 6.0 3.0 3.0 6.0 5.0 1.0 9.0 10.0 9.0 0.0 8.0 6.0 6.0 -207.0 7.0 3.0 8.0 9.0 2.0 7.0 2.0 
10.0 6.0 4.0 3.0 7.0 6.0 6.0 7.0 5.0 8.0 3.0 1.0 6.0 6.0 8.0 2.0 7.0 1.0 3.0 9.0 5.0 6.0 5.0 4.0 5.0 9.0 10.0 6.0 5.0 0.0 7.0 5.0 7.0 -208.0 5.0 5.0 4.0 4.0 1.0 7.0 
7.0 9.0 9.0 0.0 1.0 8.0 2.0 8.0 6.0 6.0 6.0 5.0 7.0 9.0 4.0 9.0 2.0 9.0 1.0 9.0 7.0 10.0 7.0 2.0 7.0 3.0 2.0 8.0 6.0 6.0 7.0 4.0 3.0 5.0 -217.0 8.0 2.0 0.0 7.0 6.0 
5.0 8.0 4.0 3.0 0.0 9.0 4.0 9.0 2.0 7.0 6.0 9.0 1.0 3.0 5.0 4.0 0.0 8.0 10.0 7.0 6.0 1.0 1.0 10.0 5.0 2.0 6.0 7.0 5.0 8.0 7.0 8.0 8.0 5.0 8.0 -218.0 5.0 9.0 6.0 7.0 
1.0 9.0 3.0 10.0 2.0 5.0 8.0 4.0 10.0 4.0 2.0 2.0 8.0 7.0 7.0 2.0 7.0 3.0 1.0 9.0 8.0 1.0 5.0 2.0 2.0 0.0 9.0 1.0 2.0 3.0 4.0 5.0 9.0 4.0 2.0 5.0 -185.0 3.0 10.0 6.0 
0.0 6.0 7.0 5.0 6.0 3.0 4.0 3.0 4.0 7.0 4.0 10.0 4.0 9.0 3.0 3.0 5.0 7.0 4.0 9.0 7.0 4.0 9.0 9.0 1.0 8.0 8.0 3.0 7.0 3.0 5.0 1.0 2.0 4.0 0.0 9.0 3.0 -187.0 1.0 0.0 
4.0 0.0 5.0 0.0 2.0 9.0 3.0 4.0 4.0 8.0 0.0 9.0 7.0 2.0 4.0 3.0 4.0 5.0 6.0 0.0 10.0 10.0 7.0 4.0 5.0 10.0 7.0 3.0 1.0 2.0 9.0 9.0 7.0 1.0 7.0 6.0 10.0 1.0 -192.0 4.0 
3.0 0.0 3.0 7.0 4.0 6.0 6.0 5.0 2.0 2.0 0.0 6.0 3.0 4.0 3.0 7.0 0.0 3.0 9.0 4.0 10.0 4.0 6.0 8.0 7.0 4.0 8.0 8.0 3.0 4.0 3.0 0.0 2.0 7.0 6.0 7.0 6.0 0.0 4.0 -174.0 

